branch-and-cut/resultados/I080/i080-141.sol
1788
10
1 31
74 4
31 77
7 77
8 74
31 6
31 74
5 77
3 31
31 2
